13
0 67 56 54 58 47 61 48 64 39 41 51 77
67 0 54 46 33 37 70 11 71 26 58 65 59
56 54 0 34 67 62 45 70 59 51 27 69 50
54 46 34 0 68 77 33 44 25 60 41 23 46
58 33 67 68 0 27 54 51 34 63 53 33 54
47 37 62 77 27 0 37 46 17 59 58 50 32
61 70 45 33 54 37 0 45 21 56 27 68 59
48 11 70 44 51 46 45 0 53 17 21 68 41
64 71 59 25 34 17 21 53 0 18 71 91 75
39 26 51 60 63 59 56 17 18 0 58 54 77
41 58 27 41 53 58 27 21 71 58 0 24 62
51 65 69 23 33 50 68 68 91 54 24 0 90
77 59 50 46 54 32 59 41 75 77 62 90 0
